c This is a CNF SAT formula in the DIMACS CNF format,
c produced with the bc2cnf translator by Tommi Junttila;
c see http://users.ics.aalto.fi/tjunttil/circuits/index.html
c phi_Gamma <-> 1
c phi_T_transitions <-> 1
c phi_T_transitions_consistency <-> 1
c phi_T <-> 1
c phi_sim_leaves <-> 1
c phi_sim_transition <-> 1
c phi_sim <-> 1
c FORMULA <-> 1
c pi_0_18 <-> 2
c pi_0_17 <-> 15
c pi_0_16 <-> 17
c pi_0_15 <-> 32
c pi_0_14 <-> 36
c pi_0_13 <-> 38
c pi_0_12 <-> 39
c pi_0_11 <-> 43
c pi_0_10 <-> 45
c pi_0_9 <-> 49
c pi_0_0 <-> 54
c pi_0_8 <-> 54
c pi_0_2 <-> 60
c pi_0_7 <-> 60
c pi_0_6 <-> 62
c pi_0_5 <-> 67
c pi_0_4 <-> 71
c pi_0_3 <-> 72
c pi_0_1 <-> 75
c alp_approved_1_0 <-> 76
c alp_approved_0_1 <-> 76
c alp_approved_1_2 <-> 76
c alp_approved_0_3 <-> 76
c alp_approved_1_4 <-> 76
c alp_approved_0_5 <-> 76
c alp_approved_0_6 <-> 76
c alp_approved_1_7 <-> 76
c alp_approved_1_8 <-> 76
c alp_approved_1_9 <-> 76
c alp_approved_1_10 <-> 76
c alp_approved_1_11 <-> 76
c alp_approved_1_12 <-> 76
c alp_approved_0_13 <-> 76
c alp_approved_0_14 <-> 76
c alp_approved_0_15 <-> 76
c alp_approved_0_16 <-> 76
c alp_approved_1_17 <-> 76
c alp_approved_1_18 <-> 76
c alp_approved_1_1 <-> 77
c alp_approved_1_3 <-> 77
c alp_approved_1_5 <-> 77
c alp_approved_1_6 <-> 77
c alp_approved_1_13 <-> 77
c alp_approved_1_14 <-> 77
c alp_approved_1_15 <-> 77
c alp_approved_1_16 <-> 77
c approved_P100 <-> 77
c alp_approved_0_0 <-> 78
c alp_approved_0_2 <-> 78
c alp_approved_0_4 <-> 78
c alp_approved_0_7 <-> 78
c alp_approved_0_8 <-> 78
c alp_approved_0_9 <-> 78
c alp_approved_0_10 <-> 78
c alp_approved_0_11 <-> 78
c alp_approved_0_12 <-> 78
c alp_approved_0_17 <-> 78
c alp_approved_0_18 <-> 78
c approved_P0 <-> 78
c tau_0_3_approved_1 <-> 105
c tau_0_3_approved_0 <-> 106
c tau_0_2_approved_1 <-> 107
c tau_0_2_approved_0 <-> 108
c tau_0_1_approved_1 <-> 109
c tau_0_1_approved_0 <-> 110
c tau_0_0_approved_1 <-> 111
c tau_0_0_approved_0 <-> 112
c phi_T_feature_det <-> 113
c lam_0_credit_score <-> 126
c lam_0_dependents <-> 128
c lam_0_monthly_income <-> 130
c lam_0_age <-> 131
p wcnf 131 391 20  
20 1 0
20 2 -3 0
20 2 -6 0
20 -2 6 3 0
1 2 0
20 -3 4 0
20 -3 126 0
20 3 -126 -4 0
20 -4 -107 0
20 -4 5 0
20 4 -5 107 0
20 5 108 0
20 5 -78 0
20 -5 78 -108 0
20 6 -7 0
20 6 -8 0
20 -6 8 7 0
20 -7 10 0
20 -7 128 0
20 7 -128 -10 0
20 8 -9 0
20 8 -12 0
20 -8 12 9 0
20 -9 10 0
20 -9 130 0
20 9 -130 -10 0
20 -10 -109 0
20 -10 11 0
20 10 -11 109 0
20 11 110 0
20 11 -78 0
20 -11 78 -110 0
20 -12 13 0
20 -12 131 0
20 12 -131 -13 0
20 -13 -111 0
20 -13 14 0
20 13 -14 111 0
20 14 112 0
20 14 -78 0
20 -14 78 -112 0
20 15 -6 0
20 15 -16 0
20 -15 16 6 0
1 15 0
20 -16 13 0
20 -16 126 0
20 16 -126 -13 0
20 17 -18 0
20 17 -21 0
20 -17 21 18 0
1 17 0
20 -18 19 0
20 -18 126 0
20 18 -126 -19 0
20 -19 -108 0
20 -19 20 0
20 19 -20 108 0
20 20 107 0
20 20 -77 0
20 -20 77 -107 0
20 21 -22 0
20 21 -25 0
20 -21 25 22 0
20 -22 23 0
20 -22 128 0
20 22 -128 -23 0
20 -23 -110 0
20 -23 24 0
20 23 -24 110 0
20 24 109 0
20 24 -77 0
20 -24 77 -109 0
20 25 -26 0
20 25 -29 0
20 -25 29 26 0
20 -26 27 0
20 -26 130 0
20 26 -130 -27 0
20 -27 -112 0
20 -27 28 0
20 27 -28 112 0
20 28 111 0
20 28 -77 0
20 -28 77 -111 0
20 -29 30 0
20 -29 131 0
20 29 -131 -30 0
20 -30 31 0
20 -30 -106 0
20 30 106 -31 0
20 31 105 0
20 31 -77 0
20 -31 77 -105 0
20 32 -33 0
20 32 -34 0
20 -32 34 33 0
1 32 0
20 -33 23 0
20 -33 126 0
20 33 -126 -23 0
20 34 -25 0
20 34 -35 0
20 -34 35 25 0
20 -35 27 0
20 -35 128 0
20 35 -128 -27 0
20 36 -21 0
20 36 -37 0
20 -36 37 21 0
1 36 0
20 -37 27 0
20 -37 126 0
20 37 -126 -27 0
20 38 -34 0
20 38 -37 0
20 -38 37 34 0
1 38 0
20 39 -16 0
20 39 -40 0
20 -39 40 16 0
1 39 0
20 40 -7 0
20 40 -41 0
20 -40 41 7 0
20 41 -9 0
20 41 -42 0
20 -41 42 9 0
20 -42 10 0
20 -42 131 0
20 42 -131 -10 0
20 43 -40 0
20 43 -44 0
20 -43 44 40 0
1 43 0
20 -44 10 0
20 -44 126 0
20 44 -126 -10 0
20 45 -3 0
20 45 -46 0
20 -45 46 3 0
1 45 0
20 46 -7 0
20 46 -47 0
20 -46 47 7 0
20 47 -9 0
20 47 -48 0
20 -47 48 9 0
20 -48 4 0
20 -48 131 0
20 48 -131 -4 0
20 49 -3 0
20 49 -50 0
20 -49 50 3 0
1 49 0
20 50 -51 0
20 50 -52 0
20 -50 52 51 0
20 -51 13 0
20 -51 128 0
20 51 -128 -13 0
20 52 -42 0
20 52 -53 0
20 -52 53 42 0
20 -53 13 0
20 -53 130 0
20 53 -130 -13 0
20 54 -44 0
20 54 -55 0
20 -54 55 44 0
1 54 0
20 55 -7 0
20 55 -56 0
20 -55 56 7 0
20 56 -53 0
20 56 -57 0
20 -56 57 53 0
20 -57 58 0
20 -57 131 0
20 57 -131 -58 0
20 -58 -105 0
20 -58 59 0
20 58 -59 105 0
20 59 106 0
20 59 -78 0
20 -59 78 -106 0
20 60 -16 0
20 60 -61 0
20 -60 61 16 0
1 60 0
20 61 -7 0
20 61 -52 0
20 -61 52 7 0
20 62 -18 0
20 62 -63 0
20 -62 63 18 0
1 62 0
20 63 -22 0
20 63 -64 0
20 -63 64 22 0
20 64 -65 0
20 64 -66 0
20 -64 66 65 0
20 -65 23 0
20 -65 130 0
20 65 -130 -23 0
20 -66 19 0
20 -66 131 0
20 66 -131 -19 0
20 67 -37 0
20 67 -68 0
20 -67 68 37 0
1 67 0
20 68 -22 0
20 68 -69 0
20 -68 69 22 0
20 69 -65 0
20 69 -70 0
20 -69 70 65 0
20 -70 23 0
20 -70 131 0
20 70 -131 -23 0
20 71 -44 0
20 71 -61 0
20 -71 61 44 0
1 71 0
20 72 -18 0
20 72 -73 0
20 -72 73 18 0
1 72 0
20 73 -35 0
20 73 -74 0
20 -73 74 35 0
20 74 -29 0
20 74 -65 0
20 -74 65 29 0
20 75 -33 0
20 75 -68 0
20 -75 68 33 0
1 75 0
20 -76 0
20 79 126 0
20 79 -80 0
20 -79 80 -126 0
20 79 0
20 -80 -105 0
20 -80 -106 0
20 80 106 105 0
20 81 128 0
20 81 -82 0
20 -81 82 -128 0
20 81 0
20 -82 -105 0
20 -82 83 0
20 82 -83 105 0
20 -83 -106 0
20 -83 84 0
20 83 -84 106 0
20 -84 -107 0
20 -84 -108 0
20 84 108 107 0
20 85 -82 0
20 85 130 0
20 -85 -130 82 0
20 85 0
20 86 126 0
20 86 -87 0
20 -86 87 -126 0
20 86 0
20 -87 88 0
20 -87 91 0
20 87 -91 -88 0
20 88 -89 0
20 88 -90 0
20 -88 90 89 0
20 -89 -108 0
20 -89 107 0
20 89 -107 108 0
20 -90 -107 0
20 -90 108 0
20 90 -108 107 0
20 -91 92 0
20 -91 95 0
20 91 -95 -92 0
20 92 -93 0
20 92 -94 0
20 -92 94 93 0
20 -93 -110 0
20 -93 109 0
20 93 -109 110 0
20 -94 -109 0
20 -94 110 0
20 94 -110 109 0
20 95 -96 0
20 95 -97 0
20 -95 97 96 0
20 -96 -112 0
20 -96 111 0
20 96 -111 112 0
20 -97 -111 0
20 -97 112 0
20 97 -112 111 0
20 98 128 0
20 98 -91 0
20 -98 91 -128 0
20 98 0
20 99 130 0
20 99 -91 0
20 -99 91 -130 0
20 99 0
20 100 131 0
20 100 -101 0
20 -100 101 -131 0
20 100 0
20 -101 87 0
20 -101 102 0
20 101 -102 -87 0
20 102 -103 0
20 102 -104 0
20 -102 104 103 0
20 -103 -106 0
20 -103 105 0
20 103 -105 106 0
20 -104 -105 0
20 -104 106 0
20 104 -106 105 0
20 113 -114 0
20 113 -117 0
20 -113 117 114 0
20 113 0
20 -114 -128 0
20 -114 115 0
20 114 -115 128 0
20 -115 -130 0
20 -115 116 0
20 115 -116 130 0
20 -116 -131 0
20 -116 126 0
20 116 -126 131 0
20 117 -118 0
20 117 -121 0
20 -117 121 118 0
20 -118 -126 0
20 -118 119 0
20 118 -119 126 0
20 -119 -130 0
20 -119 120 0
20 119 -120 130 0
20 -120 -131 0
20 -120 128 0
20 120 -128 131 0
20 121 -122 0
20 121 -125 0
20 -121 125 122 0
20 -122 -126 0
20 -122 123 0
20 122 -123 126 0
20 -123 -128 0
20 -123 124 0
20 123 -124 128 0
20 -124 -131 0
20 -124 130 0
20 124 -130 131 0
20 -125 -126 0
20 -125 127 0
20 125 -127 126 0
20 -127 -128 0
20 -127 129 0
20 127 -129 128 0
20 -129 -130 0
20 -129 131 0
20 129 -131 130 0
